COMMENT: Africa-Subproblem of 666-city TSP (Groetschel)
14.55 28.06 32.38 31.38 33.39 34.02 34.05 35.48 35.43 36.47 22.56 36.22 36.48 34.44 32.54 32.07 31.12 31.16 29.58 30.03 24.05 19.37 15.36 13.11 13.38 15.2 9 11.36 18.06 14.4 13.28 11.51 16.46 12.39 10.23 9.31 8.3 6.18 5.19 6.41 5.33 6.08 6.29 12.22 13.31 12 11.51 12.07 6.27 6.27 0.2 3.45 3.52 4.22 0.23 -4.16 -4.18 0.04 -5.54 0.3 -3.23 -1.57 0.19 -1.17 2.01 -4.03 -6.1 -6.48 -8.48 -12.44 -11.4 -12.49 -15.25 -20.09 -17.5 -15.47 -19.49 -25.58 -15.57 -37.15 -22.59 -22.34 -26.38 -24.45 -25.45 -26.15 -29.12 -29.55 -33 -33.58 -33.55 -23.21 -18.55 -12.16 -20.1 -4.38
-23.31 -15.24 -16.54 -8 -7.35 -6.51 -4.57 -5.45 -0.43 3.03 5.3 6.37 10.11 10.46 13.11 20.04 29.54 32.18 32.33 31.15 32.53 37.14 32.32 30.13 25.21 38.53 38.5 43.09 -15.57 -17.26 -16.39 -15.35 -3.01 -8 -9.18 -13.43 -13.15 -10.47 -4.02 -1.35 -0.13 1.13 2.37 -1.31 2.07 8.3 13.1 15.03 3.24 7.27 6.44 8.47 11.31 18.35 9.27 15.17 15.18 18.16 22.25 25.12 29.22 30.04 32.25 36.49 45.2 39.4 39.11 39.17 13.14 15.47 27.28 28.13 28.17 28.36 31.03 35 34.52 32.35 -5.42 -12.3 14.31 17.06 15.1 25.55 28.1 28 26.07 30.56 27.55 25.4 18.22 43.4 47.31 49.17 57.3 55.27
2941.72 2837.89 2752.87 2712.44 2598.38 2525.24 2455.63 2409.23 2409.23 2382.11 2374.83 2374.83 2374.83 2283.18 2236.88 2194.2 2125.27 2125.27 2066.24 2066.24 2066.24 2054.38 2012.64 1991.11 1935.45 1827.24 1827.24 1827.24 1797.92 1797.92 1776.76 1764.69 1764.69 1735.44 1717.83 1717.83 1717.83 1687.32 1687.32 1687.12 1687.12 1687.12 1687.12 1668.4 1635.42 1635.42 1635.42 1635.42 1635.42 1635.42 1627.02 1623.49 1623.49 1623.49 1614.02 1606.02 1606.02 1571.25 1571.25 1570.95 1570.95 1552.26 1543.62 1509.88 1509.88 1509.88 1509.88 1501.06 1498.5 1494.78 1469.53 1469.53 1469.53 1469.53 1462.73 1462.73 1462.73 1446.74 1443.71 1440.89 1440.89 1417.54 1417.54 1417.54 1417.54 1417.54 1396.1 1396.1 1388.97 1384.28 1384.28 1383.23 1348.15 1348.15 1345.1 1345.1 1339.5 1328.15 1312.99 1312.99 1312.99 1312.99 1312.99 1312.99 1312.99 1312.99 1312.99 1312.99 1312.99 1309.32 1303.85 1281.38 1281.38 1281.38 1281.38 1281.38 1281.38 1281.38 1281.38 1281.38 1281.38 1281.38 1281.38 1281.38 1281.38 1281.38 1281.38 1281.38 1281.38 1281.38 1261.84 1222.94 1222.94 1218.65 1214.22 1200.37 1200.37 1200.37 1200.37 1199.32 1199.32 1199.32 1199.32 1199.32 1190.71 1190.71 1190.71 1190.71 1190.71 1186.52 1149.68 1149.68 1149.68 1149.68 1149.68 1149.68 1143.17 1143.17 1119.94 1119.94 1119.94 1119.94 1119.94 1119.94 1119.94 1119.94 1116.14 1116.14 1116.14 1107.05 1107.05 1104.53 1104.53 1104.53 1104.53 1104.53 1104.53 1104.53 1104.53 1104.53 1101.12 1101.12 1090.9 1090.9 1090.9 1090.9 1090.9 1090.9 1090.9 1090.9 1090.9 1090.9 1090.9 1090.9 1090.9 1090.9 1090.9 1084.4 1084.4 1084.4 1081.51 1081.51 1071.53 1055.06 1055.06 1055.06 1055.06 1055.06 1055.06 1055.06 1055.06 1054.21 1054.21 1052.31 1052.31 1052.31 1052.31 1051.53 1051.53 1046.51 1040.96 1040.96 1040.96 1040.96 1040.96 1040.96 1038.58 1038.58 1038.58 1038.58 1038.58 1038.58 1038.58 1038.58 1038.58 1038.51 1030.84 1030.84 1030.84 1030.84 1025.98 1025.98 1025.98 1025.98 1025.98 1025.98 1025.98 1025.98 1025.98 1025.98 1025.98 1025.98 1025.98 1025.98 1025.98 1025.98 1025.98 1025.98 1025.98 1021.67 1021.67 1021.67 1021.67 1021.67 1016.29 1016.29 1016.29 1007.36 1007.36 1007.36 986.188 986.188 986.188 986.188 986.188 986.188 986.188 986.188 986.188 986.188 982.928 982.928 982.928 982.928 982.928 982.928 982.928 982.928 982.928 982.928 982.928 982.928 982.928 982.928 982.928 982.928 982.928 982.928 982.928 982.928 982.928 982.928 982.928 982.928 982.928 982.928 982.928 982.928 982.928 982.928 982.928 982.928 982.928 982.928 982.928 982.928 982.928 982.928 982.928 982.928 982.928 982.928 982.928 982.928 982.928 982.928 982.928 982.928 982.928 982.928 982.928 982.928 982.928 981.909 981.909 981.909 977 977 977 977 977 977 973.74 972.862 970.743 970.743 970.743 970.743 970.743 970.743 970.743 970.743 968.929 968.929 968.929 965.671 965.671 965.671 963.938 963.938 963.938 963.938 963.938 949.901 949.901 949.901 949.901 949.901 949.901 949.901 949.901 949.901 949.901 949.901 949.901 949.901 949.901 949.901 949.901 949.901 949.901 949.901 949.901 949.901 949.901 949.901 949.901 949.901 949.901 949.901 949.901 949.901 949.901 949.901 949.901 949.901 949.901 949.901 949.901 949.901 949.901 949.901 949.901 949.901 949.901 949.901 947.466 947.466 937.021 937.021 932.394 932.394 932.394 932.394 932.394 932.394 932.394 932.394 932.394 932.394 932.394 932.394 932.394 932.394 932.394 932.394 932.394 932.394 932.394 932.394 932.394 932.394 930.8 930.8 919.311 919.311 919.311 919.311 919.311 919.311 919.311 906.454 906.454 906.454 906.454 906.454 906.454 906.454 901.554 901.554 901.554 901.554 901.554 901.554 901.554 901.554 901.554 901.554 901.554 901.554 901.554 901.554 901.554 901.554 895.538 895.538 895.538 895.538 895.538 895.538 895.538 895.538 895.538 895.538 895.538 895.538 895.538 894.3 890.073 890.073 890.073 890.073 890.073 890.073 890.073 890.073 890.073 890.073 890.073 890.073 890.073 877.005 877.005 877.005 877.005 877.005 877.005 877.005 877.005 877.005 877.005 877.005 877.005 877.005 877.005 877.005 877.005 877.005 877.005 877.005 877.005 877.005 877.005 877.005 877.005 877.005 877.005 877.005 875.279 875.279 875.279 875.279 875.279 875.279 875.279 875.279 875.279 875.279 875.279 875.279 875.279 875.279 875.279 875.279 875.279 873.492 873.492 873.492 873.492 873.492 873.492 873.492 873.492 873.492 873.492 873.492 873.492 873.492 870.897 867.981 867.981 867.981 864.829 855.429 855.429 855.429 855.429 855.429 850.136 850.136 850.136 850.058 850.058 850.058 850.058 847.929 847.929 847.929 847.929 847.929 847.929 847.929 847.929 847.929 839.339 839.339 839.339 833.581 833.581 833.581 833.581 833.581 833.581 833.581 833.581 833.581 833.581 833.581 833.581 833.581 833.581 833.581 833.581 833.581 833.581 833.581 833.581 833.581 833.581 828.98 828.98 828.98 828.98 828.98 828.98 828.98 828.98 828.98 828.98 828.98 828.98 828.98 828.98 828.98 827.449 827.449 827.449 827.449 827.449 827.449 827.449 827.449 827.449 827.449 827.449 827.449 827.449 827.449 827.449 827.449 827.449 827.449 827.449 827.449 827.449 827.449 827.449 827.449 827.449 827.449 827.449 827.449 827.449 827.449 826.715 826.715 826.715 826.715 826.715 826.715 826.715 824.054 824.054 824.054 817.612 817.612 817.612 817.612 816.729 816.729 807.626 807.626 807.626 807.626 807.626 807.626 807.626 804.983 804.983 798.871 798.871 798.871 798.871 798.871 798.871 798.871 797.778 797.778 797.778 794.155 794.155 794.155 794.155 794.155 790.564 790.564 790.564 790.564 790.076 790.076 790.076 790.076 790.076 790.076 790.076 790.076 790.076 790.076 790.076 790.076 789.524 789.524 789.524 789.524 789.524 789.524 789.524 783.971 783.971 783.971 783.971 783.971 783.971 783.971 783.971 783.971 783.971 783.971 783.971 783.971 783.971 783.971 783.971 783.971 783.971 783.971 783.971 783.971 783.971 783.971 783.971 783.971 783.971 783.971 783.971 783.971 783.971 783.971 783.971 783.971 783.971 783.971 783.971 783.971 783.971 783.971 783.971 783.971 783.971 783.971 783.971 783.971 783.971 783.971 783.971 783.971 783.971 783.971 783.971 783.971 783.971 783.971 783.971 783.971 783.971 783.971 783.971 783.971 783.971 783.971 783.971 783.971 783.971 783.971 783.971 783.971 783.971 783.971 782.991 782.991 782.991 782.44 780.525 780.525 780.521 780.521 780.521 780.521 780.521 780.521 780.521 780.521 780.521 780.521 780.521 780.521 775.988 775.988 775.988 775.988 775.988 775.988 775.988 775.988 775.988 775.988 775.988 775.988 775.988 775.988 767.886 767.886 767.886 767.886 767.886 767.886 765.538 765.538 754.316 754.316 754.316 754.316 754.316 754.316 754.316 754.316 754.316 754.316 746.884 746.884 746.884 746.884 746.884 746.884 741.128 741.128 741.128 741.128 741.128 741.128 741.128 741.128 741.128 741.128 741.128 741.128 741.128 741.128 741.128 741.128 741.128 741.128 741.128 741.128 739.655 739.655 739.655 739.655 739.655 739.655 739.655 739.655 739.219 739.219 739.219 739.219 739.219 739.219 739.219 739.219 739.219 739.219 739.219 739.219 739.219 739.219 739.219 739.219 738.217 738.217 738.217 738.217 738.217 738.217 738.217 738.217 736.956 736.956 736.956 736.956 736.956 736.956 736.956 736.956 736.956 736.956 736.956 736.956 736.956 736.956 736.956 736.956 736.956 736.956 736.956 736.956 736.956 736.956 736.956 736.956 736.956 736.956 736.956 736.956 736.956 736.956 736.956 736.956 736.956 732.265 732.265 732.265 731.453 729.315 729.315 727.287 727.287 727.287 727.287 727.287 727.287 727.287 727.287 727.287 727.287 727.287 727.287 727.287 727.287 727.287 727.287 727.287 727.287 727.287 727.287 727.287 727.287 727.287 727.287 727.287 727.287 727.287 727.287 727.287 726.486 726.486 726.486 726.486 717.641 717.641 715.33 715.33 710.763 701.901 701.901 701.901 701.901 701.901 701.901 701.901 701.901 701.901 701.901 701.901 701.901 701.901 701.901 701.901 701.901 701.901 701.901 701.901 701.901 701.901 701.901 701.901 701.901 701.901 701.901 701.901 701.901 701.901 701.901 701.901 701.901 701.901 701.901 701.901 701.901 701.901 701.901 701.901 701.901 701.901 701.901 701.901 701.349 701.349 701.349 701.349 701.349 701.349 701.349 701.349 701.349 701.349 701.349 701.349 701.349 701.349 701.349 701.349 701.349 701.349 701.349 701.349 701.349 701.349 701.349 701.349 701.349 701.349 701.349 701.349 701.349 694.571 694.571 694.02 694.02 694.02 694.02 694.02 694.02 694.02 694.02 694.02 694.02 694.02 694.02 694.02 694.02 694.02 694.02 694.02 694.02 694.02 694.02 694.02 694.02 694.02 694.02 694.02 694.02 694.02 694.02 694.02 694.02 694.02 694.02 694.02 694.02 694.02 694.02 694.02 694.02 694.02 694.02 694.02 694.02 694.02 694.02 694.02 694.02 694.02 694.02 694.02 694.02 694.02 694.02 694.02 694.02 694.02 694.02 694.02 694.02 694.02 694.02 694.02 694.02 694.02 694.02 694.02 694.02 694.02 694.02 694.02 694.02 694.02 694.02 694.02 694.02 694.02 694.02 694.02 694.02 694.02 694.02 694.02 694.02 694.02 694.02 694.02 694.02 694.02 694.02 694.02 694.02 694.02 694.02 694.02 694.02 694.02 694.02 694.02 694.02 694.02 694.02 694.02 694.02 694.02 694.02 694.02 694.02 694.02 694.02 694.02 694.02 694.02 694.02 694.02 694.02 694.02 694.02 694.02 694.02 694.02 694.02 694.02 694.02 694.02 694.02 694.02 694.02 694.02 694.02 694.02 694.02 694.02 694.02 694.02 694.02 694.02 694.02 694.02 694.02 694.02 694.02 694.02 694.02 694.02 694.02 694.02 694.02 694.02 694.02 694.02 694.02 694.02 694.02 694.02 694.02 694.02 690.732 690.732 690.732 690.732 690.732 690.732 690.732 690.071 690.071 690.071 690.071 690.071 690.071 690.071 690.071 690.071 690.071 690.071 690.071 690.071 690.071 690.071 689.573 689.573 689.339 689.339 687.936 687.936 687.936 687.936 687.936 687.936 687.936 681.137 681.137 681.137 681.137 681.137 681.137 681.137 681.137 681.137 681.137 681.137 681.137 681.137 681.137 681.137 681.137 681.137 681.137 681.137 681.137 681.137 681.137 681.137 681.137 681.137 681.137 681.137 681.137 681.137 681.137 681.137 681.137 681.137 681.137 681.137 681.137 681.137 681.137 681.137 681.137 681.137 681.137 681.137 681.137 681.137 681.137 681.137 681.137 681.137 681.137 681.137 681.137 681.137 681.137 681.137 681.137 681.137 681.137 681.137 681.137 681.137 681.137 681.137 681.137 681.137 677.757 677.757 677.757 677.757 677.757 677.757 677.757 677.757 677.757 677.757 677.757 677.757 677.757 670.744 670.744 670.744 670.744 670.744 670.744 670.744 670.744 670.744 670.744 670.744 670.744 670.744 670.744 670.744 670.744 670.744 670.744 670.744 670.744 670.744 670.744 670.744 670.744 670.744 670.744 670.744 670.744 670.744 670.744 670.744 670.744 670.744 670.744 670.744 670.744 670.744 670.744 670.744 670.744 670.744 670.744 670.744 670.744 670.744 670.744 670.744 670.744 670.744 670.744 670.744 670.744 670.744 670.744 670.744 670.744 670.744 670.744 670.744 670.744 670.744 670.744 670.744 670.744 670.744 670.744 663.231 663.231 663.231 663.231 663.231 663.231 663.231 663.231 663.231 663.231 663.231 663.231 663.231 663.231 663.231 663.231 663.231 663.231 663.231 663.231 663.231 663.231 663.231 663.231 663.231 663.231 663.231 663.231 663.231 663.231 663.231 663.231 663.231 663.231 663.231 663.231 663.231 663.231 663.231 663.231 663.231 663.231 663.231 663.231 663.231 663.231 663.231 663.231 663.231 663.231 663.231 663.231 663.231 663.231 663.231 663.231 663.231 663.231 663.231 663.231 663.231 663.231 663.231 663.231 663.231 663.231 663.231 663.231 663.231 663.231 663.231 658.455 658.455 658.455 658.455 658.455 658.455 658.455 658.455 658.455 658.455 658.455 658.455 658.455 658.455 658.455 658.455 658.455 658.455 658.455 658.455 658.455 658.455 658.455 658.455 658.455 658.455 658.455 658.455 658.455 658.455 658.455 658.455 658.455 658.455 658.455 658.455 658.455 658.455 658.455 658.455 658.455 658.455 658.455 658.455 658.455 658.455 658.455 658.455 658.455 658.455 658.455 658.455 658.455 658.455 658.455 658.455 658.455 658.455 658.455 658.455 658.455 658.455 658.455 658.455 658.455 658.455 658.455 658.455 658.455 658.455 658.455 658.455 658.455 658.455 658.455 658.455 658.455 658.455 658.455 658.455 658.455 658.455 658.455 655.898 655.898 655.898 655.898 655.898 655.898 655.898 655.898 655.898 655.898 655.898 655.898 655.898 655.898 655.898 655.898 655.898 655.898 655.898 655.898 655.898 655.898 655.898 655.898 655.898 655.898 655.898 655.898 655.898 655.898 655.898 655.898 655.898 655.898 655.898 655.898 655.531 655.531 655.531 655.531 655.531 655.531 655.531 655.531 655.531 655.531 655.531 655.531 655.531 655.531 655.531 655.531 655.531 655.531 655.531 655.531 655.531 655.531 655.531 655.531 655.531 655.531 655.531 655.531 654.277 654.277 654.277 654.277 654.277 654.277 654.277 654.277 654.277 654.277 654.277 654.277 654.277 654.277 654.22 650.747 646.764 646.764 646.764 646.764 646.764 646.764 646.764 646.764 646.764 646.764 646.764 646.764 646.764 646.764 646.764 646.764 646.764 646.764 646.764 646.764 646.764 646.764 646.764 646.764 646.764 646.764 646.764 646.764 646.764 646.764 646.764 646.764 646.764 646.764 646.764 646.764 646.764 646.764 646.764 646.764 646.764 646.764 646.764 646.764 646.707 646.707 646.707 646.707 646.707 646.707 646.707 646.707 646.707 646.707 646.707 646.707 646.707 646.707 646.707 646.707 646.707 646.707 646.707 646.707 646.707 646.707 646.707 646.707 646.707 646.707 646.707 646.707 646.707 646.707 646.707 646.707 646.707 646.707 646.707 646.707 646.707 646.707 646.707 646.707 646.707 646.707 646.707 646.707 646.335 646.335 646.335 646.335 646.335 646.335 646.335 646.335 646.335 646.335 646.335 646.335 646.335 646.335 646.335 646.335 646.335 646.335 646.335 646.335 646.335 646.335 646.335 646.335 646.335 646.335 646.335 646.335 646.335 646.335 646.335 645.91 645.91 645.91 645.91 645.91 645.91 645.91 645.91 645.91 645.91 645.91 645.91 645.91 645.91 645.91 645.91 645.91 645.91 645.91 645.91 645.91 645.91 645.91 645.91 645.91 645.91 645.91 645.91 645.91 645.91 645.91 645.91 645.91 645.91 645.91 645.91 645.91 645.91 645.91 645.91 645.91 645.91 645.91 645.91 645.91 645.91 645.91 645.91 645.91 645.91 645.91 645.91 645.91 645.91 645.91 645.91 645.91 645.91 645.91 645.91 645.91 645.91 645.91 645.91 645.91 645.91 645.91 645.91 645.91 645.91 645.91 645.91 645.91 645.91 645.91 645.91 645.91 645.543 645.543 645.543 645.543 645.543 645.543 645.543 645.543 645.543 645.543 645.543 645.543 645.543 645.543 645.543 645.543 645.543 645.543 645.543 645.543 645.543 645.543 645.543 645.543 645.543 645.543 645.543 645.543 645.543 645.543 645.543 645.543 645.543 645.543 645.543 645.543 645.543 645.543 645.543 645.543 645.543 645.543 645.543 645.543 645.543 645.543 645.543 645.543 645.543 645.543 645.543 645.543 645.543 645.543 645.543 645.543 645.543 645.543 645.543 645.543 645.543 645.543 645.543 645.543 645.543 645.543 645.543 645.543 645.543 645.543 645.543 645.543 645.543 645.543 645.543 645.543 645.543 645.543 645.543 645.543 645.543 645.543 645.543 645.543 645.543 645.543 645.543 645.543 645.543 645.543 645.543 645.543 645.543 645.543 645.543 645.543 645.543 645.543 645.543 645.543 645.543 645.543 645.543 645.543 645.543 645.543 645.543 645.543 645.543 645.543 645.543 645.543 645.543 645.543 645.543 645.543 645.543 645.543 645.543 645.543 645.543 645.543 645.543 645.543 645.543 645.543 645.543 645.543 645.543 645.543 645.543 645.543 645.543 645.543 645.543 645.543 645.543 645.543 645.543 645.543 645.543 645.543 645.543 643.432 643.432 643.432 643.432 643.432 643.432 643.432 643.432 643.432 643.432 643.432 643.432 643.432 643.432 643.432 643.432 643.432 643.432 643.432 643.432 643.432 643.432 643.432 643.432 643.432 643.432 643.432 643.432 643.432 643.432 643.432 643.432 643.432 643.432 643.432 643.432 643.432 643.432 643.432 642.639 642.639 642.639 642.639 642.639 642.639 642.639 642.639 642.639 642.639 642.639 642.639 642.639 642.639 642.639 642.639 642.639 642.639 642.639
20 18 19 21 22 26 28 27 25 23 24 60 62 66 67 68 72 73 76 78 86 84 85 87 89 88 90 91 80 79 83 82 81 74 75 77 92 93 95 94 96 65 64 63 59 71 61 58 69 70 56 57 54 48 47 11 33 34 31 30 36 37 43 49 50 46 45 44 40 42 41 51 55 53 52 39 38 35 32 1 29 2 3 4 5 6 8 7 9 10 12 13 14 15 16 17
29 2 3 4 5 6 7 8 9 10 12 13 14 15 16 17 20 18 19 21 25 24 23 22 26 28 27 65 96 94 95 93 92 77 76 68 67 66 64 63 62 61 60 59 71 72 73 75 74 84 86 85 78 88 87 89 90 91 83 82 81 80 79 70 69 57 56 58 54 48 47 46 50 52 53 55 51 49 43 42 41 40 39 44 45 11 33 34 35 38 37 36 32 31 30 1
